(declare-fun var0 () String)
(assert (RegexIn var0 (RegexConcat (RegexUnion (RegexPlus (RegexPlus (RegexUnion (RegexStar (RegexUnion (RegexStar (RegexPlus (RegexUnion (RegexUnion (Str2Reg "HHH") (Str2Reg "III")) (RegexStar (Str2Reg "JJJ"))))) (RegexUnion (RegexStar (RegexStar (RegexUnion (Str2Reg "KKK") (Str2Reg "LLL")))) (RegexPlus (RegexStar (RegexPlus (Str2Reg "MMM"))))))) (RegexStar (RegexUnion (RegexPlus (RegexPlus (RegexPlus (RegexStar (Str2Reg "N"))))) (RegexStar (RegexPlus (RegexPlus (RegexStar (Str2Reg "OO")))))))))) (RegexPlus (RegexUnion (RegexStar (RegexPlus (RegexUnion (RegexUnion (RegexUnion (RegexUnion (RegexUnion (Str2Reg "PP") (Str2Reg "Q")) (RegexPlus (Str2Reg "R"))) (RegexStar (RegexStar (Str2Reg "S")))) (RegexUnion (RegexStar (RegexStar (Str2Reg "TTT"))) (RegexStar (RegexStar (Str2Reg "U"))))) (RegexStar (RegexStar (RegexPlus (RegexPlus (Str2Reg "VVV")))))))) (RegexStar (RegexStar (RegexUnion (RegexStar (RegexUnion (RegexPlus (RegexUnion (Str2Reg "W") (Str2Reg "XXX"))) (RegexPlus (RegexUnion (Str2Reg "Y") (Str2Reg "ZZ"))))) (RegexUnion (RegexStar (RegexPlus (RegexStar (Str2Reg "!!!")))) (RegexStar (RegexStar (RegexStar (Str2Reg "\"\"\""))))))))))) (RegexUnion (RegexPlus (RegexStar (RegexUnion (RegexPlus (RegexStar (RegexPlus (RegexStar (RegexPlus (RegexUnion (Str2Reg "0") (Str2Reg "111"))))))) (RegexUnion (RegexStar (RegexPlus (RegexStar (RegexStar (RegexUnion (Str2Reg "22") (Str2Reg "333")))))) (RegexStar (RegexPlus (RegexPlus (RegexUnion (RegexUnion (Str2Reg "44") (Str2Reg "555")) (RegexStar (Str2Reg "66")))))))))) (RegexUnion (RegexUnion (RegexUnion (RegexUnion (RegexStar (RegexStar (RegexUnion (RegexPlus (RegexPlus (Str2Reg "7"))) (RegexStar (RegexStar (Str2Reg "888")))))) (RegexPlus (RegexPlus (RegexStar (RegexUnion (RegexStar (Str2Reg "99")) (RegexPlus (Str2Reg "aa"))))))) (RegexUnion (RegexPlus (RegexStar (RegexUnion (RegexStar (RegexStar (Str2Reg "bbb"))) (RegexUnion (RegexUnion (Str2Reg "c") (Str2Reg "ddd")) (RegexUnion (Str2Reg "e") (Str2Reg "ff")))))) (RegexStar (RegexPlus (RegexStar (RegexPlus (RegexUnion (Str2Reg "g") (Str2Reg "hh")))))))) (RegexPlus (RegexStar (RegexUnion (RegexUnion (RegexUnion (RegexUnion (RegexStar (Str2Reg "ii")) (RegexStar (Str2Reg "jjj"))) (RegexStar (RegexPlus (Str2Reg "kkk")))) (RegexStar (RegexPlus (RegexUnion (Str2Reg "l") (Str2Reg "m"))))) (RegexUnion (RegexUnion (RegexUnion (RegexStar (Str2Reg "nn")) (RegexPlus (Str2Reg "ooo"))) (RegexStar (RegexStar (Str2Reg "ppp")))) (RegexUnion (RegexPlus (RegexUnion (Str2Reg "q") (Str2Reg "r"))) (RegexStar (RegexUnion (Str2Reg "ss") (Str2Reg "t"))))))))) (RegexUnion (RegexPlus (RegexStar (RegexUnion (RegexStar (RegexUnion (RegexStar (RegexUnion (Str2Reg "u") (Str2Reg "vv"))) (RegexStar (RegexPlus (Str2Reg "ww"))))) (RegexUnion (RegexUnion (RegexStar (RegexPlus (Str2Reg "xxx"))) (RegexStar (RegexStar (Str2Reg "y")))) (RegexStar (RegexStar (RegexPlus (Str2Reg "zzz")))))))) (RegexPlus (RegexUnion (RegexUnion (RegexStar (RegexUnion (RegexPlus (RegexUnion (Str2Reg "A") (Str2Reg "BB"))) (RegexUnion (RegexStar (Str2Reg "CC")) (RegexUnion (Str2Reg "D") (Str2Reg "E"))))) (RegexStar (RegexStar (RegexStar (RegexStar (Str2Reg "FF")))))) (RegexPlus (RegexStar (RegexStar (RegexStar (RegexStar (Str2Reg "GGG"))))))))))))))
(assert (<= 15 (Length var0)))
(check-sat)